SAT
-130 69 139 29 -121 -199 -80 -151 176 -166 34 -32 -66 36 189 -113 119 153 -193 136 120 194 -48 -200 -5 159 157 -188 64 -154 -198 -76 -67 173 -72 -2 -185 -85 40 150 84 -7 -152 -187 -53 124 -112 137 -144 98 107 91 115 -111 89 38 171 -54 160 133 8 -58 87 191 142 95 9 99 -149 14 -116 195 55 79 -43 -162 13 -100 -181 -21 -44 109 104 -11 -75 57 47 46 -1 -70 -77 -94 167 -122 15 20 52 -182 -106 -16 -169 -37 -161 33 -127 197 101 71 138 24 -81 -172 25 190 82 141 -135 148 35 126 96 -83 -88 155 108 -184 -59 -65 -23 62 22 -27 61 -158 92 102 147 -68 143 134 175 -174 146 -28 123 -51 10 -103 -97 156 183 -31 -90 -78 -192 63 -86 -117 74 -39 186 110 6 -50 41 179 30 140 93 -132 114 131 -105 -178 -12 145 56 26 -180 45 18 -129 118 170 -60 19 -177 125 168 49 -128 -165 196 164 4 17 -3 -163 42 -73 0
